56976
16, 45, 11, 25, 31, 27, 1, 33, 42, 18, 12, 4, 30, 54, 47, 34, 53, 23, 17, 48, 19, 32, 41, 44, 8, 38, 50, 20, 24, 35, 5, 37, 7, 40, 51, 13, 43, 3, 6, 55, 28, 26, 49, 21, 22, 29, 10, 9, 14, 2, 52, 15, 36, 46, 39
